
Gurobi 9.5.2 (win64) logging started Mon Mar 27 20:27:05 2023

Set parameter LogFile to value "2023-03-27_20hr-25min-09sec/Nodes30_Arcs35_LocNodes22/Formulation-2Instance-4.log"
Set parameter TimeLimit to value 600
Set parameter IntFeasTol to value 1e-09
Set parameter DualReductions to value 0
Set parameter NonConvex to value 2
Gurobi Optimizer version 9.5.2 build v9.5.2rc0 (win64)
Thread count: 4 physical cores, 8 logical processors, using up to 8 threads
Optimize a model with 118 rows, 204 columns and 418 nonzeros
Model fingerprint: 0x96299062
Model has 65 quadratic objective terms
Model has 65 SOS constraints
Variable types: 182 continuous, 22 integer (22 binary)
Coefficient statistics:
  Matrix range     [3e-02, 2e+02]
  Objective range  [3e-01, 1e+03]
  QObjective range [7e-02, 8e+00]
  Bounds range     [1e+00, 1e+00]
  RHS range        [3e-01, 2e+03]
Presolve removed 11 rows and 11 columns
Presolve time: 0.00s
Presolved: 107 rows, 193 columns, 401 nonzeros
Presolved model has 65 SOS constraint(s)
Presolved model has 65 quadratic objective terms
Variable types: 171 continuous, 22 integer (22 binary)

Root relaxation: objective 6.111336e+05, 240 iterations, 0.00 seconds (0.00 work units)

    Nodes    |    Current Node    |     Objective Bounds      |     Work
 Expl Unexpl |  Obj  Depth IntInf | Incumbent    BestBd   Gap | It/Node Time

     0     0 611133.569    0   13          - 611133.569      -     -    0s
H    0     0                    591951.67449 611133.569  3.24%     -    0s
H    0     0                    609718.60396 611133.569  0.23%     -    0s
     0     0 610693.511    0   14 609718.604 610693.511  0.16%     -    0s
     0     0 610397.093    0   14 609718.604 610397.093  0.11%     -    0s
H    0     0                    609722.00536 610397.093  0.11%     -    0s
H    0     0                    609959.52717 610397.093  0.07%     -    0s
     0     0 610397.093    0    7 609959.527 610397.093  0.07%     -    0s
H    0     0                    609962.10157 610397.093  0.07%     -    0s
H    0     0                    609964.41182 610397.093  0.07%     -    0s
     0     0 610397.093    0   20 609964.412 610397.093  0.07%     -    0s
     0     0 610099.212    0   18 609964.412 610099.212  0.02%     -    0s
     0     0 610034.694    0   18 609964.412 610034.694  0.01%     -    0s

Cutting planes:
  Cover: 4
  Implied bound: 5
  MIR: 4
  Flow cover: 9
  Relax-and-lift: 3

Explored 1 nodes (464 simplex iterations) in 0.10 seconds (0.02 work units)
Thread count was 8 (of 8 available processors)

Solution count 4: 609964 609722 591952 591410 

Optimal solution found (tolerance 1.00e-04)
Best objective 6.099644118162e+05, best bound 6.099644118162e+05, gap 0.0000%

User-callback calls 276, time in user-callback 0.00 sec
